c Reduced graph for miles250 generated by Cyril Grelier
p edge 72 259
e 1 2
e 1 14
e 1 31
e 1 32
e 1 35
e 1 37
e 1 38
e 1 41
e 1 45
e 1 52
e 1 59
e 1 60
e 1 65
e 1 69
e 2 14
e 2 16
e 2 19
e 2 31
e 2 38
e 2 41
e 2 45
e 2 48
e 2 52
e 2 60
e 2 69
e 2 70
e 3 15
e 3 20
e 3 24
e 3 49
e 3 54
e 3 57
e 3 66
e 3 71
e 4 6
e 4 15
e 4 33
e 4 56
e 5 11
e 5 30
e 5 34
e 6 18
e 6 40
e 7 55
e 8 9
e 8 25
e 8 39
e 8 61
e 8 68
e 9 25
e 9 61
e 9 68
e 10 19
e 10 55
e 10 67
e 10 70
e 11 30
e 11 34
e 12 28
e 12 40
e 13 19
e 13 24
e 13 31
e 13 36
e 13 42
e 13 53
e 13 57
e 13 58
e 13 64
e 13 67
e 13 70
e 14 32
e 14 35
e 14 38
e 14 41
e 14 45
e 14 52
e 14 60
e 14 65
e 15 20
e 15 24
e 15 33
e 15 49
e 15 56
e 15 71
e 16 45
e 16 48
e 16 52
e 16 69
e 16 70
e 17 21
e 17 43
e 17 46
e 17 62
e 17 72
e 18 40
e 19 31
e 19 36
e 19 45
e 19 48
e 19 52
e 19 55
e 19 58
e 19 64
e 19 67
e 19 69
e 19 70
e 20 24
e 20 49
e 20 54
e 20 56
e 20 57
e 20 66
e 20 71
e 21 43
e 21 46
e 21 51
e 21 62
e 21 72
e 22 27
e 22 44
e 22 50
e 22 63
e 23 26
e 23 29
e 23 47
e 24 36
e 24 42
e 24 49
e 24 54
e 24 56
e 24 57
e 24 58
e 24 64
e 25 39
e 25 61
e 25 68
e 26 28
e 26 29
e 26 47
e 27 44
e 27 50
e 27 63
e 28 47
e 29 47
e 30 34
e 31 35
e 31 36
e 31 37
e 31 45
e 31 48
e 31 52
e 31 53
e 31 58
e 31 59
e 31 60
e 31 69
e 31 70
e 32 38
e 32 41
e 32 65
e 33 56
e 33 66
e 33 71
e 35 37
e 35 41
e 35 45
e 35 52
e 35 53
e 35 59
e 35 60
e 35 65
e 35 69
e 36 42
e 36 53
e 36 54
e 36 57
e 36 58
e 36 64
e 37 45
e 37 52
e 37 53
e 37 59
e 37 60
e 38 41
e 38 60
e 38 65
e 39 61
e 39 68
e 41 45
e 41 48
e 41 52
e 41 60
e 41 65
e 41 69
e 42 49
e 42 53
e 42 54
e 42 57
e 42 58
e 42 64
e 43 46
e 43 51
e 43 62
e 43 72
e 44 50
e 44 63
e 44 66
e 44 71
e 45 48
e 45 52
e 45 60
e 45 69
e 45 70
e 46 51
e 46 62
e 46 72
e 48 52
e 48 55
e 48 69
e 48 70
e 49 54
e 49 56
e 49 57
e 49 64
e 50 63
e 50 66
e 50 71
e 51 62
e 51 72
e 52 53
e 52 59
e 52 60
e 52 69
e 52 70
e 53 57
e 53 58
e 53 64
e 54 57
e 54 58
e 54 64
e 55 67
e 55 69
e 55 70
e 57 58
e 57 64
e 58 64
e 59 60
e 59 65
e 60 65
e 60 69
e 61 68
e 62 72
e 63 66
e 63 71
e 64 67
e 66 71
e 67 70
e 69 70
